data/solutions/recovery/degenerate/moderate/flexible/degenerate_moderate_instance6/20.sol
Elapsed time: 0.06
Upper bound: 10526195.0
Planning weighted value: 64188016.0
C[0]=10526195.0
C[1]=10514183.0
C[2]=10478477.0
y[0]=0
y[1]=0
y[2]=0
y[3]=0
y[4]=2
y[5]=1
y[6]=2
y[7]=0
y[8]=1
y[9]=2
y[10]=2
y[11]=1
y[12]=1
y[13]=0
y[14]=1
y[15]=0
y[16]=0
y[17]=2
y[18]=2
y[19]=1
y[20]=2
y[21]=1
y[22]=2
y[23]=0
y[24]=2
y[25]=1
