data/solutions/recovery/degenerate/moderate/flexible/degenerate_moderate_instance6/20.log

Log started (V12.6.3.0) Sat Apr 21 11:06:22 2018

New value for default parallel thread count: 1

Problem '/tmp/tmpjuaGRz.pyomo.lp' read.
Read time = 0.00 sec. (0.02 ticks)

Problem name         : /tmp/tmpjuaGRz.pyomo.lp
Objective sense      : Minimize
Variables            :      83  [Nneg: 1,  Binary: 78,  General Integer: 4]
Objective nonzeros   :       1
Linear constraints   :      59  [Less: 29,  Equal: 30]
  Nonzeros           :    1466
  RHS nonzeros       :      53

Variables            : Min LB: 0.000000         Max UB: 1.000000       
Objective nonzeros   : Min   : 1.000000         Max   : 1.000000       
Linear constraints   :
  Nonzeros           : Min   : 1.000000         Max   : 2096995.       
  RHS nonzeros       : Min   : 1.000000         Max   : 3.000000       
Tried aggregator 2 times.
MIP Presolve eliminated 26 rows and 1 columns.
Aggregator did 3 substitutions.
Reduced MIP has 30 rows, 79 columns, and 209 nonzeros.
Reduced MIP has 78 binaries, 1 generals, 0 SOSs, and 0 indicators.
Presolve time = 0.00 sec. (0.56 ticks)
Found incumbent of value 1.1356759e+07 after 0.00 sec. (0.71 ticks)
Probing time = 0.00 sec. (0.04 ticks)
Cover probing fixed 0 vars, tightened 4 bounds.
Tried aggregator 1 time.
Reduced MIP has 30 rows, 79 columns, and 209 nonzeros.
Reduced MIP has 78 binaries, 1 generals, 0 SOSs, and 0 indicators.
Presolve time = 0.00 sec. (0.13 ticks)
Probing time = 0.00 sec. (0.03 ticks)
Clique table members: 26.
MIP emphasis: balance optimality and feasibility.
MIP search method: dynamic search.
Parallel mode: none, using 1 thread.
Root relaxation solution time = 0.00 sec. (0.07 ticks)

        Nodes                                         Cuts/
   Node  Left     Objective  IInf  Best Integer    Best Bound    ItCnt     Gap

*     0+    0                       1.13568e+07  2096995.0000            81.54%
      0     0   1.05063e+07     4   1.13568e+07   1.05063e+07        4    7.49%
*     0+    0                       1.10968e+07   1.05063e+07             5.32%
      0     0   1.05063e+07     4   1.10968e+07      Fract: 2        9    5.32%
*     0+    0                       1.10469e+07   1.05063e+07             4.89%
      0     0   1.05063e+07    10   1.10469e+07     Covers: 2       13    4.89%
*     0+    0                       1.06378e+07   1.05063e+07             1.24%
*     0+    0                       1.05432e+07   1.05063e+07             0.35%
      0     2   1.05063e+07     4   1.05432e+07   1.05063e+07       13    0.35%
Elapsed time = 0.01 sec. (3.03 ticks, tree = 0.01 MB, solutions = 4)
*   270+   24                       1.05326e+07   1.05063e+07             0.25%
*   278    26      integral     0   1.05289e+07   1.05063e+07      831    0.22%
*   327    26      integral     0   1.05262e+07   1.05063e+07      996    0.19%

Cover cuts applied:  20
Gomory fractional cuts applied:  1

Root node processing (before b&c):
  Real time             =    0.01 sec. (3.03 ticks)
Sequential b&c:
  Real time             =    0.02 sec. (17.99 ticks)
                          ------------
Total (root+branch&cut) =    0.03 sec. (21.03 ticks)

Solution pool: 7 solutions saved.

MIP - Integer optimal solution:  Objective =  1.0526195000e+07
Solution time =    0.03 sec.  Iterations = 1482  Nodes = 459
Deterministic time = 21.03 ticks  (716.87 ticks/sec)


Incumbent solution written to file '/tmp/tmp__kmhl.cplex.sol'.
